60
2 0 1
2 1 2
3 0 1
3 1 1
3 2 2
4 2 2
4 3 2
5 1 1
5 3 1
6 1 2
6 2 1
6 4 1
6 5 2
7 0 1
7 3 1
7 5 1
7 6 2
8 0 1
8 1 2
8 3 1
8 5 1
8 6 2
8 7 1
9 1 2
9 7 2
9 8 1
10 0 2
10 1 1
10 4 1
10 9 1
11 6 2
11 7 1
11 8 1
12 2 1
12 4 1
12 6 1
12 7 2
12 9 2
12 11 2
13 2 2
13 10 1
13 11 2
14 0 1
14 1 1
14 2 1
14 3 1
14 4 1
14 5 2
14 6 1
14 7 2
14 8 2
14 11 2
14 12 2
15 1 1
15 2 2
15 3 2
15 4 2
15 5 2
15 6 2
15 7 2
15 8 2
15 11 2
15 12 2
16 3 2
16 4 2
16 6 1
16 7 2
16 9 2
16 13 2
16 14 1
17 3 1
17 4 1
17 5 1
17 6 2
17 9 2
17 13 2
17 14 2
17 15 1
17 16 2
18 0 1
18 1 2
18 2 2
18 3 2
18 9 1
18 10 1
18 11 2
18 13 1
18 15 2
18 16 2
18 17 1
19 0 1
19 1 1
19 2 1
19 4 2
19 7 1
19 11 1
19 12 1
19 13 1
19 14 2
19 16 1
19 17 1
20 1 1
20 2 2
20 4 1
20 5 2
20 7 2
20 9 1
20 10 2
20 11 2
20 15 1
20 17 1
20 18 2
21 0 1
21 1 2
21 3 1
21 4 1
21 5 2
21 6 2
21 9 1
21 10 2
21 11 1
21 12 1
21 14 2
21 18 2
21 20 2
22 2 2
22 3 1
22 5 2
22 9 1
22 10 1
22 11 1
22 12 2
22 13 2
22 15 2
22 16 2
22 18 1
22 20 2
22 21 1
23 0 1
23 2 1
23 3 2
23 5 1
23 6 1
23 11 2
23 13 2
23 15 2
23 16 1
23 17 2
23 18 2
23 19 2
23 20 2
24 1 2
24 2 2
24 3 2
24 4 2
24 5 1
24 7 2
24 9 1
24 10 2
24 11 1
24 12 2
24 14 2
24 16 1
24 20 2
24 21 1
25 0 2
25 2 1
25 3 1
25 4 1
25 6 1
25 16 1
25 17 2
25 18 1
25 19 2
25 23 2
25 24 2
26 0 2
26 1 1
26 3 1
26 4 1
26 8 2
26 9 1
26 11 1
26 12 2
26 13 1
26 16 1
26 18 1
26 19 2
26 20 1
26 23 1
27 0 2
27 1 2
27 2 2
27 3 2
27 4 2
27 5 2
27 10 1
27 11 1
27 12 1
27 17 2
27 18 1
27 19 2
27 20 1
27 21 1
27 24 2
28 0 1
28 1 2
28 7 1
28 9 2
28 10 2
28 12 1
28 17 2
28 18 1
28 19 2
28 23 2
28 25 2
28 27 1
29 1 2
29 3 1
29 4 2
29 5 1
29 6 1
29 8 1
29 9 2
29 11 2
29 13 1
29 17 2
29 19 1
29 20 1
29 21 2
29 22 1
29 23 2
29 24 1
29 28 2
30 1 2
30 2 2
30 3 2
30 9 2
30 11 2
30 14 1
30 15 2
30 16 1
30 19 2
30 20 2
30 23 1
30 24 1
30 25 2
30 27 2
30 28 1
31 0 1
31 4 2
31 5 2
31 7 2
31 8 1
31 10 2
31 11 2
31 12 2
31 14 2
31 16 1
31 17 1
31 21 1
31 22 1
31 23 2
31 24 2
31 25 2
31 26 1
31 30 2
32 8 1
32 9 1
32 11 1
32 15 1
32 19 2
32 22 2
32 24 2
32 27 1
32 29 2
32 31 2
33 2 2
33 3 2
33 8 2
33 9 2
33 11 1
33 13 1
33 14 2
33 15 1
33 16 2
33 19 2
33 21 1
33 22 2
33 23 2
33 24 2
33 26 2
33 29 2
33 30 1
34 0 2
34 1 2
34 6 1
34 7 2
34 8 2
34 10 1
34 12 2
34 13 1
34 16 1
34 17 1
34 18 2
34 19 2
34 25 1
34 26 2
34 28 2
34 31 1
34 33 2
35 1 1
35 5 1
35 9 2
35 10 1
35 12 2
35 13 2
35 14 1
35 18 1
35 20 2
35 23 1
35 24 2
35 25 2
35 27 1
35 30 1
35 33 1
35 34 1
36 0 2
36 1 2
36 5 2
36 7 2
36 9 2
36 11 1
36 13 1
36 14 2
36 18 1
36 20 2
36 21 2
36 22 1
36 26 1
36 27 1
36 28 1
36 29 1
36 30 1
36 31 1
36 32 1
36 33 2
36 34 1
36 35 1
37 2 1
37 5 2
37 9 1
37 13 1
37 17 1
37 18 2
37 19 1
37 20 2
37 22 2
37 24 1
37 25 2
37 26 2
37 27 2
37 30 1
37 31 1
37 35 2
38 0 1
38 1 1
38 2 1
38 3 2
38 4 2
38 5 2
38 7 1
38 12 1
38 15 1
38 16 1
38 18 2
38 22 1
38 23 2
38 24 2
38 27 1
38 31 2
38 35 2
38 37 1
39 0 2
39 2 2
39 4 1
39 7 2
39 9 2
39 10 1
39 13 1
39 18 1
39 21 2
39 23 2
39 24 1
39 25 1
39 27 2
39 28 1
39 31 2
39 32 2
39 33 1
39 34 2
39 37 1
40 0 2
40 1 2
40 2 2
40 4 1
40 5 1
40 6 2
40 8 2
40 9 2
40 11 1
40 12 2
40 13 2
40 17 2
40 19 1
40 21 2
40 22 1
40 23 2
40 27 1
40 29 2
40 30 2
40 34 1
40 35 1
41 5 2
41 7 2
41 8 1
41 9 1
41 11 2
41 14 1
41 17 2
41 18 1
41 20 2
41 23 2
41 24 1
41 25 2
41 27 2
41 29 1
41 31 1
41 33 2
41 34 1
41 35 2
42 0 1
42 1 2
42 2 1
42 4 2
42 6 2
42 7 1
42 8 1
42 9 1
42 12 1
42 18 2
42 20 2
42 23 1
42 25 2
42 26 2
42 28 1
42 31 2
42 34 1
42 38 1
42 39 2
42 40 1
43 4 1
43 5 1
43 7 2
43 8 1
43 12 1
43 17 1
43 19 1
43 22 1
43 23 1
43 26 2
43 27 1
43 29 2
43 32 1
43 33 1
43 36 2
43 38 1
43 40 1
43 41 2
44 2 2
44 3 2
44 5 2
44 7 1
44 9 1
44 11 1
44 15 2
44 17 2
44 19 1
44 21 1
44 23 1
44 24 1
44 25 1
44 26 2
44 27 1
44 28 2
44 31 2
44 36 2
44 38 2
44 40 1
44 42 2
45 5 2
45 6 1
45 7 1
45 8 2
45 9 1
45 12 1
45 15 2
45 16 2
45 18 2
45 22 1
45 23 2
45 25 2
45 26 2
45 29 1
45 30 1
45 32 1
45 33 1
45 36 2
45 39 1
45 41 2
45 42 1
45 44 2
46 1 1
46 2 2
46 3 1
46 6 2
46 7 2
46 8 1
46 9 2
46 10 1
46 11 2
46 13 2
46 14 2
46 15 2
46 19 2
46 20 1
46 21 2
46 22 2
46 23 1
46 24 2
46 26 1
46 27 1
46 29 2
46 30 2
46 33 1
46 34 1
46 42 1
46 45 1
47 0 1
47 3 2
47 6 1
47 8 1
47 12 1
47 13 2
47 14 1
47 15 1
47 17 2
47 18 1
47 19 2
47 21 1
47 23 2
47 25 2
47 26 1
47 27 2
47 28 2
47 32 1
47 35 1
47 36 1
47 37 2
47 38 2
47 42 2
47 44 2
47 46 2
48 0 1
48 2 1
48 3 2
48 4 1
48 5 1
48 6 2
48 8 2
48 9 2
48 10 1
48 11 2
48 14 2
48 19 1
48 22 2
48 24 1
48 26 1
48 34 1
48 36 1
48 37 1
48 38 1
48 39 2
48 40 2
48 41 2
48 43 1
48 46 2
49 0 2
49 4 1
49 6 1
49 7 1
49 10 2
49 11 2
49 16 2
49 18 1
49 23 2
49 24 2
49 29 1
49 31 1
49 34 1
49 37 1
49 41 2
49 43 2
49 44 2
49 47 2
49 48 2
50 0 1
50 2 2
50 3 2
50 4 2
50 5 1
50 6 2
50 8 1
50 9 1
50 11 1
50 16 2
50 19 1
50 21 2
50 24 2
50 27 2
50 31 2
50 33 1
50 35 2
50 38 2
50 44 2
50 45 2
50 46 2
50 47 1
50 48 1
50 49 1
51 0 1
51 1 2
51 3 2
51 4 1
51 5 1
51 7 1
51 10 1
51 11 2
51 12 2
51 13 1
51 14 2
51 15 2
51 18 1
51 19 1
51 20 1
51 21 2
51 22 2
51 25 1
51 28 1
51 30 2
51 31 2
51 32 1
51 35 1
51 37 2
51 38 1
51 39 2
51 41 1
51 42 2
51 43 2
51 45 1
51 46 2
51 48 1
51 50 1
52 1 1
52 2 2
52 3 1
52 4 1
52 5 1
52 10 2
52 13 2
52 14 2
52 16 2
52 17 1
52 20 2
52 21 1
52 22 2
52 25 2
52 26 2
52 27 1
52 28 1
52 30 2
52 31 2
52 32 1
52 33 2
52 34 2
52 35 2
52 36 1
52 37 1
52 39 1
52 40 2
52 41 2
52 42 2
52 46 1
52 47 2
52 50 2
52 51 2
53 2 1
53 3 1
53 4 1
53 5 2
53 6 2
53 11 1
53 16 2
53 19 1
53 24 2
53 25 1
53 26 2
53 27 1
53 28 1
53 30 1
53 34 1
53 35 2
53 36 1
53 39 2
53 40 2
53 41 2
53 42 2
53 43 1
53 45 2
53 46 1
53 47 1
53 48 2
53 50 1
53 51 1
53 52 2
54 0 2
54 3 1
54 4 1
54 5 2
54 8 2
54 11 1
54 12 2
54 14 2
54 15 2
54 17 1
54 18 2
54 23 2
54 24 1
54 25 1
54 28 1
54 29 2
54 32 2
54 33 2
54 36 1
54 38 1
54 39 2
54 40 1
54 41 2
54 43 2
55 0 1
55 2 2
55 3 1
55 4 1
55 5 1
55 6 2
55 7 2
55 14 1
55 16 2
55 18 2
55 19 2
55 25 2
55 26 2
55 31 1
55 32 2
55 34 2
55 37 1
55 39 2
55 40 2
55 42 1
55 45 1
55 46 2
55 48 1
55 50 1
55 51 1
56 1 1
56 3 2
56 4 2
56 7 2
56 8 2
56 12 1
56 13 2
56 14 1
56 16 2
56 17 1
56 19 1
56 20 1
56 21 1
56 22 2
56 23 2
56 26 1
56 27 1
56 28 2
56 30 2
56 33 1
56 34 1
56 35 1
56 37 1
56 42 2
56 43 2
56 44 1
56 46 2
56 47 1
56 48 1
56 50 2
56 51 1
56 52 2
56 53 2
56 55 1
57 4 2
57 5 2
57 7 2
57 8 1
57 12 2
57 13 1
57 16 2
57 20 2
57 22 1
57 25 2
57 26 1
57 28 2
57 31 1
57 35 2
57 36 2
57 37 1
57 42 2
57 43 2
57 44 1
57 45 1
57 48 2
57 50 1
57 51 1
57 56 1
58 2 2
58 3 2
58 4 1
58 6 1
58 7 1
58 8 2
58 10 1
58 12 1
58 13 1
58 14 1
58 17 2
58 21 2
58 22 2
58 23 2
58 25 2
58 26 2
58 28 2
58 30 1
58 32 1
58 35 1
58 36 2
58 42 1
58 44 2
58 45 1
58 49 1
58 50 2
58 51 2
58 52 1
58 55 1
58 56 1
59 1 1
59 3 2
59 4 2
59 5 1
59 7 2
59 9 2
59 10 1
59 11 2
59 12 1
59 13 2
59 15 2
59 16 1
59 18 1
59 19 2
59 20 2
59 21 1
59 23 1
59 24 1
59 26 2
59 29 2
59 31 1
59 32 2
59 34 2
59 40 2
59 43 2
59 47 2
59 51 2
59 52 2
59 54 1
59 58 2
